p cnf 100 600
1 -100 -71 0
1 -100 -1 0
1 -100 2 0
1 -100 6 0
1 -100 43 0
1 -100 77 0
1 -99 -77 0
1 -99 -20 0
1 -99 29 0
1 -99 40 0
1 -99 57 0
1 -99 62 0
1 -98 -13 0
1 -98 -9 0
1 -98 26 0
1 -98 29 0
1 -98 42 0
1 -98 53 0
1 -97 -73 0
1 -97 -11 0
1 -97 68 0
1 -97 83 0
1 -97 84 0
1 -97 92 0
1 -96 -47 0
1 -96 -24 0
1 -96 -9 0
1 -96 -1 0
1 -96 65 0
1 -96 85 0
1 -95 -79 0
1 -95 -8 0
1 -95 15 0
1 -95 24 0
1 -95 38 0
1 -95 48 0
1 -94 -81 0
1 -94 -78 0
1 -94 -7 0
1 -94 -5 0
1 -94 -2 0
1 -94 76 0
1 -93 -69 0
1 -93 -2 0
1 -93 7 0
1 -93 11 0
1 -93 20 0
1 -93 56 0
1 -92 -89 0
1 -92 -81 0
1 -92 -76 0
1 -92 -47 0
1 -92 -29 0
1 -92 -27 0
1 -91 -80 0
1 -91 -69 0
1 -91 -42 0
1 -91 -24 0
1 -91 55 0
1 -91 68 0
1 -90 -88 0
1 -90 -78 0
1 -90 -25 0
1 -90 -15 0
1 -90 86 0
1 -90 88 0
1 -89 -76 0
1 -89 -31 0
1 -89 47 0
1 -89 58 0
1 -89 61 0
1 -88 -31 0
1 -88 6 0
1 -88 64 0
1 -88 66 0
1 -88 77 0
1 -87 -71 0
1 -87 -48 0
1 -87 -45 0
1 -87 -18 0
1 -87 73 0
1 -87 90 0
1 -86 -85 0
1 -86 -77 0
1 -86 -27 0
1 -86 -18 0
1 -86 82 0
1 -86 94 0
1 -85 -72 0
1 -85 -62 0
1 -85 46 0
1 -85 71 0
1 -85 83 0
1 -84 -14 0
1 -84 -6 0
1 -84 10 0
1 -84 26 0
1 -84 82 0
1 -84 90 0
1 -83 -26 0
1 -83 -14 0
1 -83 11 0
1 -83 70 0
1 -83 71 0
1 -83 76 0
1 -82 -46 0
1 -82 -13 0
1 -82 31 0
1 -82 38 0
1 -82 42 0
1 -82 58 0
1 -81 -62 0
1 -81 -43 0
1 -81 -19 0
1 -81 -16 0
1 -80 -4 0
1 -80 1 0
1 -80 4 0
1 -80 12 0
1 -80 45 0
1 -79 -55 0
1 -79 -50 0
1 -79 -15 0
1 -79 28 0
1 -79 100 0
1 -78 -59 0
1 -78 -43 0
1 -78 19 0
1 -78 59 0
1 -77 63 0
1 -77 75 0
1 -77 76 0
1 -77 84 0
1 -76 -53 0
1 -76 -51 0
1 -76 8 0
1 -76 25 0
1 -75 -60 0
1 -75 -44 0
1 -75 -16 0
1 -75 20 0
1 -75 22 0
1 -75 95 0
1 -74 -73 0
1 -74 -57 0
1 -74 -54 0
1 -74 10 0
1 -74 50 0
1 -74 62 0
1 -73 6 0
1 -73 11 0
1 -73 31 0
1 -73 52 0
1 -72 -11 0
1 -72 -7 0
1 -72 34 0
1 -72 44 0
1 -72 67 0
1 -71 -34 0
1 -71 -20 0
1 -71 2 0
1 -71 81 0
1 -70 -44 0
1 -70 -29 0
1 -70 -24 0
1 -70 2 0
1 -70 28 0
1 -70 100 0
1 -69 -63 0
1 -69 -46 0
1 -69 10 0
1 -69 67 0
1 -68 -58 0
1 -68 -36 0
1 -68 -33 0
1 -68 -12 0
1 -68 52 0
1 -68 72 0
1 -67 -49 0
1 -67 14 0
1 -67 43 0
1 -67 75 0
1 -67 85 0
1 -67 100 0
1 -66 -2 0
1 -66 13 0
1 -66 16 0
1 -66 51 0
1 -66 59 0
1 -66 87 0
1 -65 20 0
1 -65 27 0
1 -65 37 0
1 -65 42 0
1 -65 53 0
1 -65 60 0
1 -64 -54 0
1 -64 -46 0
1 -64 8 0
1 -64 30 0
1 -64 45 0
1 -64 66 0
1 -63 -42 0
1 -63 -41 0
1 -63 -40 0
1 -63 10 0
1 -63 42 0
1 -62 -27 0
1 -62 -26 0
1 -62 3 0
1 -62 71 0
1 -61 -57 0
1 -61 -30 0
1 -61 1 0
1 -61 21 0
1 -61 24 0
1 -61 66 0
1 -60 -34 0
1 -60 -9 0
1 -60 -8 0
1 -60 4 0
1 -60 58 0
1 -59 13 0
1 -59 24 0
1 -59 45 0
1 -59 74 0
1 -59 82 0
1 -58 -53 0
1 -58 -30 0
1 -58 -19 0
1 -58 31 0
1 -58 97 0
1 -57 -18 0
1 -57 -10 0
1 -57 47 0
1 -57 56 0
1 -56 -31 0
1 -56 19 0
1 -56 27 0
1 -56 37 0
1 -56 77 0
1 -56 83 0
1 -55 -21 0
1 -55 -17 0
1 -55 2 0
1 -55 30 0
1 -55 36 0
1 -54 -35 0
1 -54 -20 0
1 -54 7 0
1 -54 93 0
1 -53 -19 0
1 -53 13 0
1 -53 81 0
1 -53 95 0
1 -52 -30 0
1 -52 -29 0
1 -52 5 0
1 -52 80 0
1 -52 88 0
1 -52 92 0
1 -51 -44 0
1 -51 -37 0
1 -51 -24 0
1 -51 39 0
1 -51 82 0
1 -50 -48 0
1 -50 -38 0
1 -50 21 0
1 -50 51 0
1 -50 60 0
1 -49 -37 0
1 -49 -25 0
1 -49 29 0
1 -49 35 0
1 -49 99 0
1 -48 -36 0
1 -48 -11 0
1 -48 -3 0
1 -48 65 0
1 -47 37 0
1 -47 42 0
1 -47 69 0
1 -47 72 0
1 -46 -39 0
1 -46 18 0
1 -46 89 0
1 -45 -32 0
1 -45 -17 0
1 -45 62 0
1 -45 68 0
1 -45 80 0
1 -44 42 0
1 -44 56 0
1 -44 64 0
1 -43 -8 0
1 -43 62 0
1 -43 78 0
1 -43 81 0
1 -42 5 0
1 -42 43 0
1 -42 65 0
1 -42 70 0
1 -41 38 0
1 -41 52 0
1 -41 53 0
1 -41 62 0
1 -41 89 0
1 -40 -36 0
1 -40 -35 0
1 -40 -34 0
1 -40 20 0
1 -40 82 0
1 -39 -17 0
1 -39 -9 0
1 -39 21 0
1 -39 49 0
1 -39 72 0
1 -38 -22 0
1 -38 28 0
1 -38 41 0
1 -38 46 0
1 -38 98 0
1 -37 -21 0
1 -37 43 0
1 -37 52 0
1 -37 78 0
1 -36 -4 0
1 -36 45 0
1 -36 100 0
1 -35 3 0
1 -35 32 0
1 -35 49 0
1 -35 100 0
1 -34 72 0
1 -34 80 0
1 -34 91 0
1 -33 -27 0
1 -33 -19 0
1 -33 63 0
1 -33 65 0
1 -33 97 0
1 -32 -28 0
1 -32 69 0
1 -32 79 0
1 -32 94 0
1 -32 97 0
1 -31 8 0
1 -31 28 0
1 -31 29 0
1 -30 6 0
1 -30 35 0
1 -30 70 0
1 -29 -16 0
1 -29 8 0
1 -29 74 0
1 -28 14 0
1 -28 41 0
1 -28 55 0
1 -28 79 0
1 -28 81 0
1 -27 20 0
1 -27 64 0
1 -26 49 0
1 -26 63 0
1 -26 71 0
1 -26 85 0
1 -25 18 0
1 -25 31 0
1 -25 77 0
1 -25 95 0
1 -24 96 0
1 -24 98 0
1 -23 -18 0
1 -23 -15 0
1 -23 33 0
1 -23 39 0
1 -23 89 0
1 -23 93 0
1 -22 39 0
1 -22 44 0
1 -22 67 0
1 -22 76 0
1 -22 88 0
1 -21 23 0
1 -21 35 0
1 -21 70 0
1 -21 96 0
1 -20 -3 0
1 -20 -1 0
1 -20 61 0
1 -19 47 0
1 -19 61 0
1 -18 17 0
1 -18 44 0
1 -17 18 0
1 -17 77 0
1 -17 87 0
1 -16 10 0
1 -16 79 0
1 -16 90 0
1 -15 55 0
1 -15 65 0
1 -15 66 0
1 -14 -5 0
1 -14 1 0
1 -14 29 0
1 -14 93 0
1 -13 -6 0
1 -13 8 0
1 -13 17 0
1 -13 19 0
1 -12 -10 0
1 -12 -5 0
1 -12 57 0
1 -12 85 0
1 -12 92 0
1 -11 1 0
1 -11 71 0
1 -11 83 0
1 -10 32 0
1 -10 43 0
1 -10 67 0
1 -10 73 0
1 -9 -6 0
1 -9 34 0
1 -8 14 0
1 -8 23 0
1 -8 88 0
1 -7 13 0
1 -7 33 0
1 -7 35 0
1 -7 75 0
1 -6 -2 0
1 -6 49 0
1 -6 68 0
1 -5 -4 0
1 -5 6 0
1 -5 55 0
1 -4 7 0
1 -4 54 0
1 -4 76 0
1 -3 4 0
1 -3 32 0
1 -3 48 0
1 -3 83 0
1 -2 44 0
1 -2 63 0
1 -1 9 0
1 -1 35 0
1 -1 86 0
1 1 38 0
1 1 60 0
1 2 28 0
1 2 63 0
1 3 11 0
1 3 14 0
1 3 19 0
1 3 74 0
1 4 34 0
1 4 51 0
1 4 69 0
1 5 14 0
1 5 16 0
1 5 17 0
1 5 40 0
1 6 7 0
1 7 56 0
1 7 91 0
1 8 60 0
1 9 17 0
1 9 18 0
1 9 64 0
1 9 99 0
1 9 100 0
1 10 41 0
1 11 27 0
1 11 88 0
1 12 22 0
1 12 40 0
1 12 45 0
1 12 78 0
1 12 97 0
1 13 24 0
1 13 30 0
1 14 16 0
1 15 41 0
1 15 69 0
1 15 81 0
1 15 90 0
1 15 99 0
1 16 21 0
1 16 79 0
1 16 87 0
1 17 58 0
1 17 74 0
1 18 22 0
1 18 84 0
1 19 66 0
1 19 94 0
1 20 48 0
1 21 47 0
1 21 75 0
1 22 46 0
1 22 83 0
1 22 84 0
1 23 41 0
1 23 64 0
1 23 82 0
1 23 96 0
1 24 46 0
1 24 57 0
1 25 27 0
1 25 53 0
1 25 57 0
1 25 89 0
1 25 93 0
1 26 50 0
1 26 53 0
1 26 56 0
1 26 87 0
1 27 49 0
1 27 79 0
1 28 50 0
1 29 85 0
1 30 34 0
1 30 37 0
1 30 51 0
1 31 33 0
1 31 84 0
1 32 44 0
1 32 60 0
1 32 81 0
1 33 36 0
1 33 64 0
1 33 66 0
1 34 40 0
1 34 93 0
1 35 59 0
1 36 70 0
1 36 74 0
1 36 87 0
1 36 98 0
1 37 62 0
1 37 75 0
1 38 68 0
1 38 80 0
1 39 51 0
1 39 91 0
1 39 92 0
1 40 86 0
1 40 98 0
1 41 51 0
1 43 80 0
1 44 54 0
1 45 61 0
1 46 55 0
1 46 69 0
1 47 73 0
1 47 99 0
1 48 67 0
1 48 86 0
1 48 89 0
1 49 80 0
1 50 58 0
1 50 59 0
1 50 87 0
1 52 78 0
1 52 94 0
1 53 96 0
1 54 63 0
1 54 75 0
1 54 92 0
1 54 95 0
1 55 58 0
1 56 71 0
1 57 74 0
1 57 97 0
1 59 90 0
1 59 91 0
1 60 68 0
1 61 73 0
1 61 84 0
1 65 99 0
1 67 73 0
1 69 96 0
1 70 99 0
1 72 88 0
1 72 98 0
1 73 91 0
1 76 94 0
1 77 90 0
1 78 85 0
1 78 91 0
1 79 97 0
1 86 95 0
1 86 98 0
1 89 95 0
1 92 96 0
1 93 94 0
